Minimize
  obj: x0 + x1 + x2 + x3 + x4 + x5 + x6 + x7 + x8 + x9 + x10

Subject To
  c0: x1 + x2 + x3 + x4 + x7 + x8 + x10 = 68
  c1: x1 + x2 + x4 + x8 + x9 + x10 = 65
  c2: x0 + x1 + x2 + x4 + x7 + x8 + x10 = 83
  c3: x0 + x6 + x7 = 33
  c4: x1 + x2 + x3 + x4 + x6 + x7 + x8 + x9 = 66
  c5: x1 + x2 + x3 + x4 + x7 + x10 = 66
  c6: x2 + x3 + x4 + x8 = 27
  c7: x1 + x2 + x3 + x7 + x9 + x10 = 70
  c8: x1 + x2 + x5 + x6 + x7 + x8 + x9 + x10 = 87
  c9: x1 + x2 + x3 + x5 + x7 + x8 + x10 = 77

Bounds
  x0 >= 0
  x1 >= 0
  x2 >= 0
  x3 >= 0
  x4 >= 0
  x5 >= 0
  x6 >= 0
  x7 >= 0
  x8 >= 0
  x9 >= 0
  x10 >= 0

Generals
  x0 x1 x2 x3 x4 x5 x6 x7 x8 x9 x10

End
